Minimize

x_0 + x_1 + x_2 + x_3 + x_4 + x_5 + x_6 + x_7 + x_8


Subject To

a0: 3 x_0 + 5 x_1 + 7 x_2 + 9 x_3 + 12 x_4 + 13 x_5 + 15 x_6 + 17 x_7 + 19 x_8 = 36



Bounds


x_0 <= 12
x_1 <= 7
x_2 <= 5
x_3 <= 4
x_4 <= 3
x_5 <= 2
x_6 <= 2
x_7 <= 2
x_8 <= 1




General

 x_0 x_1 x_2 x_3 x_4 x_5 x_6 x_7 x_8



End
